--- Job dynamic_calib Start 06/08/23 15:55:58 42.5.0 cf11b917 WEX-WEI x86 64bit/MS Windows
--- Applying:
    C:\GAMS\42\gmsprmNT.txt
--- GAMS Parameters defined
    Input h:\windc\github\windc_build\household\dynamic_calib.gms
    Output h:\windc\github\windc_build\household\lst\dynamic_calib_2017.lst
    ScrDir h:\windc\github\windc_build\household\225b\
    SysDir C:\GAMS\42\
    LogOption 4
    LogFile h:\windc\github\windc_build\household\lst\dynamic_calib_2017.log
    --year 2017
Licensee: Small MUD - 5 User License                     G230511|0002AO-GEN
          University of Wisconsin-Madison, Agricultural & Applied EconDC289
          C:\Users\Thomas F. Rutherford\Documents\GAMS\gamslice.txt
          License Admin: Thomas F. Rutherford, rutherford@aae.wisc.edu     
Processor information: 1 socket(s), 12 core(s), and 24 thread(s) available
GAMS 42.5.0   Copyright (C) 1987-2023 GAMS Development. All rights reserved
--- Starting compilation
--- dynamic_calib.gms(30) 2 Mb
--- . windc_coredata.gms(17) 2 Mb
--- GDXin=h:\windc\github\windc_build\core\WiNDCdatabase.gdx
--- GDX File ($gdxIn) h:\windc\github\windc_build\core\WiNDCdatabase.gdx
--- . windc_coredata.gms(209) 202 Mb
--- dynamic_calib.gms(39) 202 Mb
--- GDXin=h:\windc\github\windc_build\household\gdx\capital_tax_rates.gdx
--- GDX File ($gdxIn) h:\windc\github\windc_build\household\gdx\capital_tax_rates.gdx
--- dynamic_calib.gms(59) 202 Mb
--- GDXin=h:\windc\github\windc_build\household\gdx\i0_2017.gdx
--- GDX File ($gdxIn) h:\windc\github\windc_build\household\gdx\i0_2017.gdx
--- dynamic_calib.gms(298) 202 Mb
--- Starting execution: elapsed 0:00:00.503
--- dynamic_calib.gms(238) 219 Mb
--- GDX File (execute_unload) h:\windc\github\windc_build\household\225b\totgdp.gdx
--- dynamic_calib.gms(239) 219 Mb
--- dynamic_calib.gms(437) 233 Mb
--- Generating QCP model sscalib
--- dynamic_calib.gms(438) 386 Mb
---   21,849 rows  543,151 columns  1,625,830 non-zeroes
---   1,187,748 nl-code  237,547 nl-non-zeroes
--- Range statistics (absolute non-zero finite values)
--- RHS       [min, max] : [ 4.031E-25, 8.652E+02] - Zero values observed as well
--- Bound     [min, max] : [ 2.019E-18, 1.944E+02] - Zero values observed as well
--- Matrix    [min, max] : [ 1.000E+00, 1.000E+00] - Zero values observed as well
--- dynamic_calib.gms(438) 367 Mb
--- Executing CPLEX (Solvelink=2): elapsed 0:00:10.219

IBM ILOG CPLEX   42.5.0 cf11b917 Mar 30, 2023          WEI x86 64bit/MS Window

--- GAMS/Cplex licensed for continuous and discrete problems.
--- GMO Q Extraction (ThreePass): 1.69s
--- GMO setup time: 1.70s
--- Space for names approximately 13.86 Mb
--- Use option 'names no' to turn use of names off
--- GMO memory 192.50 Mb (peak 200.27 Mb)
--- Dictionary memory 0.00 Mb
--- Cplex 22.1.1.0 link memory 10.61 Mb (peak 47.24 Mb)
--- Starting Cplex

Version identifier: 22.1.1.0 | 2022-11-27 | 9160aff4d
CPXPARAM_Advance                                 0
CPXPARAM_Threads                                 1
CPXPARAM_MIP_Display                             4
CPXPARAM_MIP_Pool_Capacity                       0
CPXPARAM_MIP_Tolerances_AbsMIPGap                0
Tried aggregator 1 time.
QP Presolve eliminated 51 rows and 3622 columns.
Aggregator did 402 substitutions.
Reduced QP has 21395 rows, 539127 columns, and 1074633 nonzeros.
Reduced QP objective Q matrix has 235974 nonzeros.
Presolve time = 0.30 sec. (176.71 ticks)
Parallel mode: none, using 1 thread for barrier
Number of nonzeros in lower triangle of A*A' = 535506
Using Approximate Minimum Degree ordering
Total time for automatic ordering = 0.03 sec. (31.29 ticks)
Summary statistics for Cholesky factor:
  Rows in Factor            = 21395
  Integer space required    = 292935
  Total non-zeros in factor = 980840
  Total FP ops to factor    = 83872916
 Itn      Primal Obj        Dual Obj  Prim Inf Upper Inf  Dual Inf          
   0   5.2899817e+14  -5.2899815e+14  2.76e+07  0.00e+00  1.99e+13
   1   1.9354432e+14  -1.9354431e+14  1.67e+07  0.00e+00  1.20e+13
   2   9.0635822e+13  -9.0635815e+13  1.14e+07  0.00e+00  8.23e+12
   3   2.8721518e+13  -2.8721511e+13  6.43e+06  0.00e+00  4.63e+12
   4   1.0880268e+13  -1.0880262e+13  3.96e+06  0.00e+00  2.85e+12
   5   2.4241409e+12  -2.4241364e+12  1.87e+06  0.00e+00  1.35e+12
   6   1.3690711e+12  -1.3690668e+12  1.40e+06  0.00e+00  1.01e+12
   7   2.4003101e+11  -2.4002766e+11  5.87e+05  0.00e+00  4.23e+11
   8   9.6425585e+10  -9.6422967e+10  3.72e+05  0.00e+00  2.68e+11
   9   1.9614246e+10  -1.9612726e+10  1.68e+05  0.00e+00  1.21e+11
  10   2.4604471e+09  -2.4597545e+09  5.95e+04  0.00e+00  4.29e+10
  11   1.0411601e+09  -1.0406130e+09  3.87e+04  0.00e+00  2.79e+10
  12   3.3205380e+08  -3.3161469e+08  2.18e+04  0.00e+00  1.57e+10
  13   5.1215504e+07  -5.0989998e+07  8.56e+03  0.00e+00  6.17e+09
  14   6.8429606e+06  -6.7614821e+06  3.11e+03  0.00e+00  2.24e+09
  15   3.2341512e+06  -3.1784478e+06  2.13e+03  0.00e+00  1.54e+09
  16   1.1746735e+06  -1.1414438e+06  1.28e+03  0.00e+00  9.20e+08
  17   3.1133402e+05  -2.9451551e+05  6.47e+02  0.00e+00  4.66e+08
  18   9.4793010e+04  -8.5756320e+04  3.47e+02  0.00e+00  2.50e+08
  19   4.2131001e+04  -3.6289253e+04  2.25e+02  0.00e+00  1.62e+08
  20   1.4733101e+04  -1.1487264e+04  1.25e+02  0.00e+00  9.00e+07
  21   6.6293000e+03  -4.6046843e+03  7.79e+01  0.00e+00  5.62e+07
  22   2.9664449e+03  -1.7484469e+03  4.69e+01  0.00e+00  3.38e+07
  23   1.3829082e+03  -6.6103351e+02  2.78e+01  0.00e+00  2.01e+07
  24   7.1210417e+02  -2.7187963e+02  1.70e+01  0.00e+00  1.22e+07
  25   3.6313097e+02  -1.0743161e+02  9.88e+00  0.00e+00  7.12e+06
  26   2.0265936e+02  -4.7777048e+01  5.99e+00  0.00e+00  4.32e+06
  27   1.1963683e+02  -2.3236171e+01  3.74e+00  0.00e+00  2.69e+06
  28   6.3386234e+01  -1.0134070e+01  2.07e+00  0.00e+00  1.49e+06
  29   3.6321776e+01  -5.0550849e+00  1.22e+00  0.00e+00  8.77e+05
  30   2.1867498e+01  -2.7399474e+00  7.46e-01  0.00e+00  5.37e+05
  31   1.2889371e+01  -1.4819718e+00  4.45e-01  0.00e+00  3.21e+05
  32   6.5479562e+00  -7.0465204e-01  2.29e-01  0.00e+00  1.65e+05
  33   3.7248947e+00  -3.7965459e-01  1.31e-01  0.00e+00  9.46e+04
  34   2.0921041e+00  -2.0336671e-01  7.43e-02  0.00e+00  5.35e+04
  35   8.4881390e-01  -8.0634863e-02  3.02e-02  0.00e+00  2.18e+04
  36   3.5135979e-01  -3.1441105e-02  1.25e-02  0.00e+00  9.02e+03
  37   1.7146021e-01  -1.3185360e-02  6.08e-03  0.00e+00  4.38e+03
  38   6.1551120e-02  -2.3589406e-03  2.11e-03  0.00e+00  1.52e+03
  39   2.1982280e-02   1.7308930e-03  6.66e-04  0.00e+00  4.80e+02
  40   1.1370500e-02   2.9236864e-03  2.79e-04  0.00e+00  2.01e+02
  41   6.1882707e-03   3.5121806e-03  8.84e-05  0.00e+00  6.37e+01
  42   4.3750344e-03   3.7278652e-03  2.13e-05  0.00e+00  1.53e+01
  43   3.9202606e-03   3.7862501e-03  4.38e-06  0.00e+00  3.16e+00
  44   3.8222571e-03   3.7998226e-03  7.27e-07  0.00e+00  5.24e-01
  45   3.8036260e-03   3.8026039e-03  3.13e-08  0.00e+00  2.25e-02
  46   3.8027904e-03   3.8027691e-03  5.15e-10  0.00e+00  3.44e-04

Warning:  Barrier optimality criterion affected by large objective shift.
Barrier time = 3.00 sec. (7848.33 ticks)

Total time on 1 threads = 3.00 sec. (7848.33 ticks)

--- QP status (1): optimal.
--- Cplex Time: 3.00sec (det. 7848.33 ticks)


Optimal solution found
Objective:            0.003803

--- Reading solution for model sscalib
--- Executing after solve: elapsed 0:00:24.179
--- dynamic_calib.gms(506) 372 Mb
--- GDX File (execute_unload) h:\windc\github\windc_build\household\gdx\dynamic_parameters_2017.gdx
*** Status: Normal completion
--- Job dynamic_calib.gms Stop 06/08/23 15:56:25 elapsed 0:00:26.500
